% File represents an instance of a Composite Structure problem to be solved by a CP framework
% Created on 2025-03-25 14:05:13.618
T = 38;
n = 9;
m = 12;
edges = [(1, 2),
(4, 5),
(8, 7),
(2, 3),
(6, 5),
(9, 8),
(4, 1),
(7, 4),
(5, 2),
(8, 5),
(6, 3),
(9, 6)];
counts = [|6, 5, 9, 3,
|6, 5, 8, 3,
|6, 4, 7, 3,
|10, 5, 9, 3,
|10, 5, 8, 3,
|11, 5, 8, 4,
|10, 5, 10, 3,
|10, 5, 10, 5,
|11, 12, 10, 5|];
